db/inputs/26862431663225872472813205388127571.smt2
(set-logic QF_FP)
(declare-const x0 (_ FloatingPoint 8 24))
(declare-const x1 (_ FloatingPoint 8 24))
(declare-const x2 (_ FloatingPoint 8 24))
(declare-const x3 (_ FloatingPoint 8 24))
(declare-const x4 (_ FloatingPoint 8 24))
(declare-const x5 (_ FloatingPoint 8 24))
(declare-const x6 (_ FloatingPoint 8 24))
(declare-const x7 (_ FloatingPoint 8 24))
(declare-const x8 (_ FloatingPoint 8 24))
(assert (fp.lt (fp.sub RNE (fp.div RNE x4 x7) (fp.sub RNE x8 x3)) (fp.mul RNE (fp.neg x6) (fp.neg x6))))
(assert (fp.lt (fp.neg (fp.sub RNE x5 x4)) (fp.sub RNE (fp.mul RNE x7 x5) (fp.mul RNE x2 x3))))
(assert (fp.gt (fp.add RNE (fp.sub RNE x1 x5) (fp.neg x7)) (fp.sub RNE (fp.div RNE x3 x4) (fp.sub RNE x2 x4))))
(check-sat)
