db/data/26862431663225872472813205388127571.z3.out
sat
-------------------
11.303932609
